\ENCODING=ISO-8859-1
\Problem name: ran13x13.mps

Maximize
 COST: -144 X0               + 214 X1               + 59 X2               -286 X3               -184 X4               -7 X5               + 148 X6               + 229 X7               + 262 X8               -189 X9               + 207 X10              + 251 X11              + 283 X12              + 243 X13              -281 X14              + 147 X15              + 118 X16              -53 X17              -117 X18              -195 X19              + 153 X20              + 247 X21              + 17 X22              -233 X23              + 271 X24              + 181 X25              + 284 X26              + 220 X27              + 120 X28              -87 X29              + 186 X30              + 251 X31              -172 X32              -77 X33              + 241 X34              -57 X35              + 215 X36              + 67 X37              -127 X38              + 155 X39              + 177 X40              -242 X41              + 108 X42              + 138 X43              + 276 X44              + 125 X45              -37 X46              + 95 X47              -227 X48              + 145 X49              + 199 X50              + 201 X51              + 93 X52              -106 X53              + 244 X54              + 42 X55              -224 X56              + 206 X57              -37 X58              + 171 X59              -180 X60              -173 X61              + 101 X62              -77 X63              + 49 X64              + 43 X65              + 164 X66              -35 X67              -189 X68              -285 X69              -179 X70              + 263 X71              -252 X72              + 204 X73              + 102 X74              -275 X75              + 30 X76              -233 X77              + 119 X78              + 79 X79              + 210 X80              -4 X81              -42 X82              -19 X83              + 188 X84              -97 X85              -276 X86              + 240 X87              -190 X88              -37 X89              + 89 X90              -95 X91              + 88 X92              -109 X93              + 127 X94              -162 X95              + 209 X96              -31 X97              + 78 X98              -278 X99              -40 X100             + 175 X101             + 283 X102             + 6 X103             + 80 X104             + 64 X105             + 30 X106             -188 X107             + 129 X108             -173 X109             + 166 X110             + 17 X111             + 98 X112             -175 X113             + 296 X114             -13 X115             + 4 X116             + 295 X117             -95 X118             + 89 X119             -41 X120             + 293 X121             + 293 X122             -251 X123             -138 X124             + 98 X125             -138 X126             -227 X127             -232 X128             + 239 X129             -230 X130             + 26 X131             + 115 X132             -246 X133             -289 X134             -104 X135             + 116 X136             + 39 X137             -17 X138             -77 X139             + 141 X140             -173 X141             + 238 X142             -60 X143             -49 X144             + 235 X145             + 225 X146             + 230 X147             + 209 X148             -191 X149             + 20 X150             -131 X151             -197 X152             -9 X153             -107 X154             -60 X155             -210 X156             + 54 X157             + 11 X158             -166 X159             -6 X160             + 79 X161             + 158 X162             -213 X163             + 109 X164             + 144 X165             -42 X166             -97 X167             -116 X168             + 240 Y0               + 125 Y1               -274 Y2               -255 Y3               + 64 Y4               -59 Y5               -6 Y6               -22 Y7               -155 Y8               -75 Y9               -112 Y10              -48 Y11              + 221 Y12              + 32 Y13              + 30 Y14              -87 Y15              + 224 Y16              + 268 Y17              -21 Y18              -21 Y19              -42 Y20              + 111 Y21              + 248 Y22              -262 Y23              -53 Y24              -287 Y25              + 122 Y26              -207 Y27              -31 Y28              -273 Y29              -48 Y30              -113 Y31              + 127 Y32              -23 Y33              -69 Y34              -131 Y35              + 216 Y36              + 200 Y37              + 122 Y38              -261 Y39              -196 Y40              -289 Y41              -11 Y42              -274 Y43              + 19 Y44              -280 Y45              -86 Y46              -56 Y47              + 264 Y48              + 191 Y49              + 198 Y50              -77 Y51              + 3 Y52              + 124 Y53              -64 Y54              + 226 Y55              + 135 Y56              -240 Y57              -280 Y58              -218 Y59              -238 Y60              -30 Y61              -32 Y62              + 164 Y63              + 222 Y64              + 174 Y65              -266 Y66              + 117 Y67              + 75 Y68              + 155 Y69              + 154 Y70              + 177 Y71              + 141 Y72              -155 Y73              + 201 Y74              -139 Y75              -160 Y76              -206 Y77              + 80 Y78              -195 Y79              + 283 Y80              -21 Y81              + 3 Y82              -35 Y83              -219 Y84              + 238 Y85              -108 Y86              + 214 Y87              + 273 Y88              -113 Y89              + 295 Y90              -287 Y91              + 155 Y92              -59 Y93              + 175 Y94              + 56 Y95              -184 Y96              + 184 Y97              -126 Y98              + 189 Y99              + 40 Y100             -271 Y101             + 45 Y102             -117 Y103             -151 Y104             -76 Y105             + 19 Y106             -12 Y107             + 16 Y108             -199 Y109             + 68 Y110             -22 Y111             + 55 Y112             -227 Y113             + 241 Y114             + 112 Y115             + 286 Y116             -189 Y117             + 4 Y118             + 237 Y119             -27 Y120             -23 Y121             + 225 Y122             -171 Y123             + 216 Y124             + 101 Y125             + 160 Y126             -290 Y127             -37 Y128             -265 Y129             + 175 Y130             -295 Y131             -260 Y132             -79 Y133             -137 Y134             -113 Y135             + 143 Y136             + 157 Y137             + 150 Y138             -162 Y139             + 233 Y140             -103 Y141             + 114 Y142             -33 Y143             -32 Y144             + 33 Y145             -220 Y146             -68 Y147             + 119 Y148             + 82 Y149             -153 Y150             -207 Y151             -239 Y152             -227 Y153             -103 Y154             + 252 Y155             + 149 Y156             -241 Y157             + 261 Y158             -187 Y159             -208 Y160             + 114 Y161             -184 Y162             -193 Y163             -264 Y164             -46 Y165             -7 Y166             + 154 Y167             -187 Y168
Subject To
 A0:   X0 + X1 + X2 + X3 + X4 + X5 + X6 + X7 + X8 + X9 + X10 + X11 + X12  = 14
 A1:   X13 + X14 + X15 + X16 + X17 + X18 + X19 + X20 + X21 + X22 + X23 + X24
       + X25  = 21
 A2:   X26 + X27 + X28 + X29 + X30 + X31 + X32 + X33 + X34 + X35 + X36 + X37
       + X38  = 11
 A3:   X39 + X40 + X41 + X42 + X43 + X44 + X45 + X46 + X47 + X48 + X49 + X50
       + X51  = 28
 A4:   X52 + X53 + X54 + X55 + X56 + X57 + X58 + X59 + X60 + X61 + X62 + X63
       + X64  = 13
 A5:   X65 + X66 + X67 + X68 + X69 + X70 + X71 + X72 + X73 + X74 + X75 + X76
       + X77  = 7
 A6:   X78 + X79 + X80 + X81 + X82 + X83 + X84 + X85 + X86 + X87 + X88 + X89
       + X90  = 21
 A7:   X91 + X92 + X93 + X94 + X95 + X96 + X97 + X98 + X99 + X100 + X101 + X102
       + X103  = 7
 A8:   X104 + X105 + X106 + X107 + X108 + X109 + X110 + X111 + X112 + X113
       + X114 + X115 + X116  = 18
 A9:   X117 + X118 + X119 + X120 + X121 + X122 + X123 + X124 + X125 + X126
       + X127 + X128 + X129  = 12
 A10:  X130 + X131 + X132 + X133 + X134 + X135 + X136 + X137 + X138 + X139
       + X140 + X141 + X142  = 16
 A11:  X143 + X144 + X145 + X146 + X147 + X148 + X149 + X150 + X151 + X152
       + X153 + X154 + X155  = 12
 A12:  X156 + X157 + X158 + X159 + X160 + X161 + X162 + X163 + X164 + X165
       + X166 + X167 + X168  = 20
 B0:   X0 + X13 + X26 + X39 + X52 + X65 + X78 + X91 + X104 + X117 + X130 + X143
       + X156  = 20
 B1:   X1 + X14 + X27 + X40 + X53 + X66 + X79 + X92 + X105 + X118 + X131 + X144
       + X157  = 28
 B2:   X2 + X15 + X28 + X41 + X54 + X67 + X80 + X93 + X106 + X119 + X132 + X145
       + X158  = 13
 B3:   X3 + X16 + X29 + X42 + X55 + X68 + X81 + X94 + X107 + X120 + X133 + X146
       + X159  = 6
 B4:   X4 + X17 + X30 + X43 + X56 + X69 + X82 + X95 + X108 + X121 + X134 + X147
       + X160  = 3
 B5:   X5 + X18 + X31 + X44 + X57 + X70 + X83 + X96 + X109 + X122 + X135 + X148
       + X161  = 43
 B6:   X6 + X19 + X32 + X45 + X58 + X71 + X84 + X97 + X110 + X123 + X136 + X149
       + X162  = 4
 B7:   X7 + X20 + X33 + X46 + X59 + X72 + X85 + X98 + X111 + X124 + X137 + X150
       + X163  = 1
 B8:   X8 + X21 + X34 + X47 + X60 + X73 + X86 + X99 + X112 + X125 + X138 + X151
       + X164  = 34
 B9:   X9 + X22 + X35 + X48 + X61 + X74 + X87 + X100 + X113 + X126 + X139
       + X152 + X165  = 32
 B10:  X10 + X23 + X36 + X49 + X62 + X75 + X88 + X101 + X114 + X127 + X140
       + X153 + X166  = 2
 B11:  X11 + X24 + X37 + X50 + X63 + X76 + X89 + X102 + X115 + X128 + X141
       + X154 + X167  = 9
 B12:  X12 + X25 + X38 + X51 + X64 + X77 + X90 + X103 + X116 + X129 + X142
       + X155 + X168  = 5
 G0:   X0 - 14 Y0 <= 0
 G1:   X1 - 14 Y1 <= 0
 G2:   X2 - 13 Y2 <= 0
 G3:   X3 - 6 Y3 <= 0
 G4:   X4 - 3 Y4 <= 0
 G5:   X5 - 14 Y5 <= 0
 G6:   X6 - 4 Y6 <= 0
 G7:   X7 - Y7 <= 0
 G8:   X8 - 14 Y8 <= 0
 G9:   X9 - 14 Y9 <= 0
 G10:  X10 - 2 Y10 <= 0
 G11:  X11 - 9 Y11 <= 0
 G12:  X12 - 5 Y12 <= 0
 G13:  X13 - 20 Y13 <= 0
 G14:  X14 - 21 Y14 <= 0
 G15:  X15 - 13 Y15 <= 0
 G16:  X16 - 6 Y16 <= 0
 G17:  X17 - 3 Y17 <= 0
 G18:  X18 - 21 Y18 <= 0
 G19:  X19 - 4 Y19 <= 0
 G20:  X20 - Y20 <= 0
 G21:  X21 - 21 Y21 <= 0
 G22:  X22 - 21 Y22 <= 0
 G23:  X23 - 2 Y23 <= 0
 G24:  X24 - 9 Y24 <= 0
 G25:  X25 - 5 Y25 <= 0
 G26:  X26 - 11 Y26 <= 0
 G27:  X27 - 11 Y27 <= 0
 G28:  X28 - 11 Y28 <= 0
 G29:  X29 - 6 Y29 <= 0
 G30:  X30 - 3 Y30 <= 0
 G31:  X31 - 11 Y31 <= 0
 G32:  X32 - 4 Y32 <= 0
 G33:  X33 - Y33 <= 0
 G34:  X34 - 11 Y34 <= 0
 G35:  X35 - 11 Y35 <= 0
 G36:  X36 - 2 Y36 <= 0
 G37:  X37 - 9 Y37 <= 0
 G38:  X38 - 5 Y38 <= 0
 G39:  X39 - 20 Y39 <= 0
 G40:  X40 - 28 Y40 <= 0
 G41:  X41 - 13 Y41 <= 0
 G42:  X42 - 6 Y42 <= 0
 G43:  X43 - 3 Y43 <= 0
 G44:  X44 - 28 Y44 <= 0
 G45:  X45 - 4 Y45 <= 0
 G46:  X46 - Y46 <= 0
 G47:  X47 - 28 Y47 <= 0
 G48:  X48 - 28 Y48 <= 0
 G49:  X49 - 2 Y49 <= 0
 G50:  X50 - 9 Y50 <= 0
 G51:  X51 - 5 Y51 <= 0
 G52:  X52 - 13 Y52 <= 0
 G53:  X53 - 13 Y53 <= 0
 G54:  X54 - 13 Y54 <= 0
 G55:  X55 - 6 Y55 <= 0
 G56:  X56 - 3 Y56 <= 0
 G57:  X57 - 13 Y57 <= 0
 G58:  X58 - 4 Y58 <= 0
 G59:  X59 - Y59 <= 0
 G60:  X60 - 13 Y60 <= 0
 G61:  X61 - 13 Y61 <= 0
 G62:  X62 - 2 Y62 <= 0
 G63:  X63 - 9 Y63 <= 0
 G64:  X64 - 5 Y64 <= 0
 G65:  X65 - 7 Y65 <= 0
 G66:  X66 - 7 Y66 <= 0
 G67:  X67 - 7 Y67 <= 0
 G68:  X68 - 6 Y68 <= 0
 G69:  X69 - 3 Y69 <= 0
 G70:  X70 - 7 Y70 <= 0
 G71:  X71 - 4 Y71 <= 0
 G72:  X72 - Y72 <= 0
 G73:  X73 - 7 Y73 <= 0
 G74:  X74 - 7 Y74 <= 0
 G75:  X75 - 2 Y75 <= 0
 G76:  X76 - 7 Y76 <= 0
 G77:  X77 - 5 Y77 <= 0
 G78:  X78 - 20 Y78 <= 0
 G79:  X79 - 21 Y79 <= 0
 G80:  X80 - 13 Y80 <= 0
 G81:  X81 - 6 Y81 <= 0
 G82:  X82 - 3 Y82 <= 0
 G83:  X83 - 21 Y83 <= 0
 G84:  X84 - 4 Y84 <= 0
 G85:  X85 - Y85 <= 0
 G86:  X86 - 21 Y86 <= 0
 G87:  X87 - 21 Y87 <= 0
 G88:  X88 - 2 Y88 <= 0
 G89:  X89 - 9 Y89 <= 0
 G90:  X90 - 5 Y90 <= 0
 G91:  X91 - 7 Y91 <= 0
 G92:  X92 - 7 Y92 <= 0
 G93:  X93 - 7 Y93 <= 0
 G94:  X94 - 6 Y94 <= 0
 G95:  X95 - 3 Y95 <= 0
 G96:  X96 - 7 Y96 <= 0
 G97:  X97 - 4 Y97 <= 0
 G98:  X98 - Y98 <= 0
 G99:  X99 - 7 Y99 <= 0
 G100: X100 - 7 Y100 <= 0
 G101: X101 - 2 Y101 <= 0
 G102: X102 - 7 Y102 <= 0
 G103: X103 - 5 Y103 <= 0
 G104: X104 - 18 Y104 <= 0
 G105: X105 - 18 Y105 <= 0
 G106: X106 - 13 Y106 <= 0
 G107: X107 - 6 Y107 <= 0
 G108: X108 - 3 Y108 <= 0
 G109: X109 - 18 Y109 <= 0
 G110: X110 - 4 Y110 <= 0
 G111: X111 - Y111 <= 0
 G112: X112 - 18 Y112 <= 0
 G113: X113 - 18 Y113 <= 0
 G114: X114 - 2 Y114 <= 0
 G115: X115 - 9 Y115 <= 0
 G116: X116 - 5 Y116 <= 0
 G117: X117 - 12 Y117 <= 0
 G118: X118 - 12 Y118 <= 0
 G119: X119 - 12 Y119 <= 0
 G120: X120 - 6 Y120 <= 0
 G121: X121 - 3 Y121 <= 0
 G122: X122 - 12 Y122 <= 0
 G123: X123 - 4 Y123 <= 0
 G124: X124 - Y124 <= 0
 G125: X125 - 12 Y125 <= 0
 G126: X126 - 12 Y126 <= 0
 G127: X127 - 2 Y127 <= 0
 G128: X128 - 9 Y128 <= 0
 G129: X129 - 5 Y129 <= 0
 G130: X130 - 16 Y130 <= 0
 G131: X131 - 16 Y131 <= 0
 G132: X132 - 13 Y132 <= 0
 G133: X133 - 6 Y133 <= 0
 G134: X134 - 3 Y134 <= 0
 G135: X135 - 16 Y135 <= 0
 G136: X136 - 4 Y136 <= 0
 G137: X137 - Y137 <= 0
 G138: X138 - 16 Y138 <= 0
 G139: X139 - 16 Y139 <= 0
 G140: X140 - 2 Y140 <= 0
 G141: X141 - 9 Y141 <= 0
 G142: X142 - 5 Y142 <= 0
 G143: X143 - 12 Y143 <= 0
 G144: X144 - 12 Y144 <= 0
 G145: X145 - 12 Y145 <= 0
 G146: X146 - 6 Y146 <= 0
 G147: X147 - 3 Y147 <= 0
 G148: X148 - 12 Y148 <= 0
 G149: X149 - 4 Y149 <= 0
 G150: X150 - Y150 <= 0
 G151: X151 - 12 Y151 <= 0
 G152: X152 - 12 Y152 <= 0
 G153: X153 - 2 Y153 <= 0
 G154: X154 - 9 Y154 <= 0
 G155: X155 - 5 Y155 <= 0
 G156: X156 - 20 Y156 <= 0
 G157: X157 - 20 Y157 <= 0
 G158: X158 - 13 Y158 <= 0
 G159: X159 - 6 Y159 <= 0
 G160: X160 - 3 Y160 <= 0
 G161: X161 - 20 Y161 <= 0
 G162: X162 - 4 Y162 <= 0
 G163: X163 - Y163 <= 0
 G164: X164 - 20 Y164 <= 0
 G165: X165 - 20 Y165 <= 0
 G166: X166 - 2 Y166 <= 0
 G167: X167 - 9 Y167 <= 0
 G168: X168 - 5 Y168 <= 0
Bounds
 0 <= Y0 <= 1
 0 <= Y1 <= 1
 0 <= Y2 <= 1
 0 <= Y3 <= 1
 0 <= Y4 <= 1
 0 <= Y5 <= 1
 0 <= Y6 <= 1
 0 <= Y7 <= 1
 0 <= Y8 <= 1
 0 <= Y9 <= 1
 0 <= Y10 <= 1
 0 <= Y11 <= 1
 0 <= Y12 <= 1
 0 <= Y13 <= 1
 0 <= Y14 <= 1
 0 <= Y15 <= 1
 0 <= Y16 <= 1
 0 <= Y17 <= 1
 0 <= Y18 <= 1
 0 <= Y19 <= 1
 0 <= Y20 <= 1
 0 <= Y21 <= 1
 0 <= Y22 <= 1
 0 <= Y23 <= 1
 0 <= Y24 <= 1
 0 <= Y25 <= 1
 0 <= Y26 <= 1
 0 <= Y27 <= 1
 0 <= Y28 <= 1
 0 <= Y29 <= 1
 0 <= Y30 <= 1
 0 <= Y31 <= 1
 0 <= Y32 <= 1
 0 <= Y33 <= 1
 0 <= Y34 <= 1
 0 <= Y35 <= 1
 0 <= Y36 <= 1
 0 <= Y37 <= 1
 0 <= Y38 <= 1
 0 <= Y39 <= 1
 0 <= Y40 <= 1
 0 <= Y41 <= 1
 0 <= Y42 <= 1
 0 <= Y43 <= 1
 0 <= Y44 <= 1
 0 <= Y45 <= 1
 0 <= Y46 <= 1
 0 <= Y47 <= 1
 0 <= Y48 <= 1
 0 <= Y49 <= 1
 0 <= Y50 <= 1
 0 <= Y51 <= 1
 0 <= Y52 <= 1
 0 <= Y53 <= 1
 0 <= Y54 <= 1
 0 <= Y55 <= 1
 0 <= Y56 <= 1
 0 <= Y57 <= 1
 0 <= Y58 <= 1
 0 <= Y59 <= 1
 0 <= Y60 <= 1
 0 <= Y61 <= 1
 0 <= Y62 <= 1
 0 <= Y63 <= 1
 0 <= Y64 <= 1
 0 <= Y65 <= 1
 0 <= Y66 <= 1
 0 <= Y67 <= 1
 0 <= Y68 <= 1
 0 <= Y69 <= 1
 0 <= Y70 <= 1
 0 <= Y71 <= 1
 0 <= Y72 <= 1
 0 <= Y73 <= 1
 0 <= Y74 <= 1
 0 <= Y75 <= 1
 0 <= Y76 <= 1
 0 <= Y77 <= 1
 0 <= Y78 <= 1
 0 <= Y79 <= 1
 0 <= Y80 <= 1
 0 <= Y81 <= 1
 0 <= Y82 <= 1
 0 <= Y83 <= 1
 0 <= Y84 <= 1
 0 <= Y85 <= 1
 0 <= Y86 <= 1
 0 <= Y87 <= 1
 0 <= Y88 <= 1
 0 <= Y89 <= 1
 0 <= Y90 <= 1
 0 <= Y91 <= 1
 0 <= Y92 <= 1
 0 <= Y93 <= 1
 0 <= Y94 <= 1
 0 <= Y95 <= 1
 0 <= Y96 <= 1
 0 <= Y97 <= 1
 0 <= Y98 <= 1
 0 <= Y99 <= 1
 0 <= Y100 <= 1
 0 <= Y101 <= 1
 0 <= Y102 <= 1
 0 <= Y103 <= 1
 0 <= Y104 <= 1
 0 <= Y105 <= 1
 0 <= Y106 <= 1
 0 <= Y107 <= 1
 0 <= Y108 <= 1
 0 <= Y109 <= 1
 0 <= Y110 <= 1
 0 <= Y111 <= 1
 0 <= Y112 <= 1
 0 <= Y113 <= 1
 0 <= Y114 <= 1
 0 <= Y115 <= 1
 0 <= Y116 <= 1
 0 <= Y117 <= 1
 0 <= Y118 <= 1
 0 <= Y119 <= 1
 0 <= Y120 <= 1
 0 <= Y121 <= 1
 0 <= Y122 <= 1
 0 <= Y123 <= 1
 0 <= Y124 <= 1
 0 <= Y125 <= 1
 0 <= Y126 <= 1
 0 <= Y127 <= 1
 0 <= Y128 <= 1
 0 <= Y129 <= 1
 0 <= Y130 <= 1
 0 <= Y131 <= 1
 0 <= Y132 <= 1
 0 <= Y133 <= 1
 0 <= Y134 <= 1
 0 <= Y135 <= 1
 0 <= Y136 <= 1
 0 <= Y137 <= 1
 0 <= Y138 <= 1
 0 <= Y139 <= 1
 0 <= Y140 <= 1
 0 <= Y141 <= 1
 0 <= Y142 <= 1
 0 <= Y143 <= 1
 0 <= Y144 <= 1
 0 <= Y145 <= 1
 0 <= Y146 <= 1
 0 <= Y147 <= 1
 0 <= Y148 <= 1
 0 <= Y149 <= 1
 0 <= Y150 <= 1
 0 <= Y151 <= 1
 0 <= Y152 <= 1
 0 <= Y153 <= 1
 0 <= Y154 <= 1
 0 <= Y155 <= 1
 0 <= Y156 <= 1
 0 <= Y157 <= 1
 0 <= Y158 <= 1
 0 <= Y159 <= 1
 0 <= Y160 <= 1
 0 <= Y161 <= 1
 0 <= Y162 <= 1
 0 <= Y163 <= 1
 0 <= Y164 <= 1
 0 <= Y165 <= 1
 0 <= Y166 <= 1
 0 <= Y167 <= 1
 0 <= Y168 <= 1
Binaries
 Y0  Y1  Y2  Y3  Y4  Y5  Y6  Y7  Y8  Y9  Y10  Y11  Y12  Y13  Y14  Y15  Y16 
 Y17  Y18  Y19  Y20  Y21  Y22  Y23  Y24  Y25  Y26  Y27  Y28  Y29  Y30  Y31 
 Y32  Y33  Y34  Y35  Y36  Y37  Y38  Y39  Y40  Y41  Y42  Y43  Y44  Y45  Y46 
 Y47  Y48  Y49  Y50  Y51  Y52  Y53  Y54  Y55  Y56  Y57  Y58  Y59  Y60  Y61 
 Y62  Y63  Y64  Y65  Y66  Y67  Y68  Y69  Y70  Y71  Y72  Y73  Y74  Y75  Y76 
 Y77  Y78  Y79  Y80  Y81  Y82  Y83  Y84  Y85  Y86  Y87  Y88  Y89  Y90  Y91 
 Y92  Y93  Y94  Y95  Y96  Y97  Y98  Y99  Y100  Y101  Y102  Y103  Y104  Y105 
 Y106  Y107  Y108  Y109  Y110  Y111  Y112  Y113  Y114  Y115  Y116  Y117  Y118 
 Y119  Y120  Y121  Y122  Y123  Y124  Y125  Y126  Y127  Y128  Y129  Y130  Y131 
 Y132  Y133  Y134  Y135  Y136  Y137  Y138  Y139  Y140  Y141  Y142  Y143  Y144 
 Y145  Y146  Y147  Y148  Y149  Y150  Y151  Y152  Y153  Y154  Y155  Y156  Y157 
 Y158  Y159  Y160  Y161  Y162  Y163  Y164  Y165  Y166  Y167  Y168 
End
